
Gurobi 10.0.1 (win64) logging started Sat Sep 16 16:57:07 2023

Set parameter LogFile to value "./results-heuristic-start//log/Fattahi_setup_04_modified_old_makespan.log"
Gurobi Optimizer version 10.0.1 build v10.0.1rc0 (win64)

CPU model: AMD Ryzen 7 3700X 8-Core Processor, instruction set [SSE2|AVX|AVX2]
Thread count: 8 physical cores, 16 logical processors, using up to 16 threads

Optimize a model with 87 rows, 57 columns and 336 nonzeros
Model fingerprint: 0x282d9019
Variable types: 10 continuous, 47 integer (46 binary)
Coefficient statistics:
  Matrix range     [1e+00, 1e+06]
  Objective range  [1e+00, 1e+00]
  Bounds range     [1e+00, 1e+00]
  RHS range        [1e+00, 3e+06]

User MIP start did not produce a new incumbent solution
User MIP start violates constraint initial_start_time_job0_stage0_machine0_constraint by 420.000000000

Found heuristic solution: objective 3212.0000000
Presolve removed 22 rows and 26 columns
Presolve time: 0.00s
Presolved: 65 rows, 31 columns, 270 nonzeros
Variable types: 10 continuous, 21 integer (20 binary)

Root relaxation: objective 2.432000e+03, 18 iterations, 0.00 seconds (0.00 work units)

    Nodes    |    Current Node    |     Objective Bounds      |     Work
 Expl Unexpl |  Obj  Depth IntInf | Incumbent    BestBd   Gap | It/Node Time

     0     0 2432.00000    0    6 3212.00000 2432.00000  24.3%     -    0s
     0     0 2451.00000    0    9 3212.00000 2451.00000  23.7%     -    0s
H    0     0                    3152.0000000 2461.00000  21.9%     -    0s
     0     0 2461.00000    0    9 3152.00000 2461.00000  21.9%     -    0s
     0     0 2461.00000    0    7 3152.00000 2461.00000  21.9%     -    0s
     0     0 2461.00000    0    7 3152.00000 2461.00000  21.9%     -    0s
     0     0 2463.40486    0    7 3152.00000 2463.40486  21.8%     -    0s
     0     0 2469.00000    0    6 3152.00000 2469.00000  21.7%     -    0s
     0     0 2469.00000    0    7 3152.00000 2469.00000  21.7%     -    0s
     0     0 2643.00000    0    8 3152.00000 2643.00000  16.1%     -    0s
     0     0 2651.00000    0    6 3152.00000 2651.00000  15.9%     -    0s
     0     0 2807.00000    0    8 3152.00000 2807.00000  10.9%     -    0s
     0     2 2815.00000    0    8 3152.00000 2815.00000  10.7%     -    0s

Cutting planes:
  Learned: 5
  Gomory: 4
  Cover: 1
  MIR: 4
  Flow cover: 23
  Relax-and-lift: 1

Explored 52 nodes (421 simplex iterations) in 0.02 seconds (0.01 work units)
Thread count was 16 (of 16 available processors)

Solution count 3: 3152 3152 3212 

Optimal solution found (tolerance 1.00e-04)
Best objective 3.152000000000e+03, best bound 3.152000000000e+03, gap 0.0000%
Warning: constraint name "precedence between 0,1 to 0,0 if x_[j,l,h,z,i]=1" has a space
Warning: constraint name "precedence between 0,1 to 0,0 if x_[j,l,h,z,i]=1" has a space
Warning: default constraint names used to write mps file
